(set-logic QF_LRA)
(set-info :ran/ran_10_2_lia.smt2)
(set-info :smt-lib-version 2.0)
(declare-fun x0 () Real)
(declare-fun x1 () Real)
(declare-fun x2 () Real)
(declare-fun x3 () Real)
(declare-fun x4 () Real)
(declare-fun x5 () Real)
(declare-fun x6 () Real)
(declare-fun x7 () Real)
(declare-fun x8 () Real)
(declare-fun x9 () Real)
(define-fun ie0 () Bool (<= (+ (* (- 74) x5) (* 6 x3) ) (- 38)))
(define-fun ie1 () Bool (<= (+ (* 79 x5) (* (- 48) x4) ) 64))
(define-fun ie2 () Bool (<= (+ (* (- 78) x3) (* (- 41) x2) ) 94))
(define-fun ie3 () Bool (<= (+ (* 31 x8) (* 26 x5) ) 48))
(define-fun ie4 () Bool (<= (+ (* 77 x0) (* (- 74) x7) ) 75))
(define-fun ie5 () Bool (<= (+ (* (- 36) x4) (* (- 37) x4) ) (- 85)))
(define-fun ie6 () Bool (<= (+ (* 53 x0) (* 0 x2) ) 45))
(define-fun ie7 () Bool (<= (+ (* 63 x1) (* 63 x7) ) 75))
(define-fun ie8 () Bool (<= (+ (* 27 x9) (* (- 100) x9) ) (- 29)))
(define-fun ie9 () Bool (<= (+ (* 46 x0) (* (- 49) x3) ) 85))
(define-fun ie10 () Bool (<= (+ (* 99 x2) (* (- 62) x7) ) (- 39)))
(define-fun ie11 () Bool (<= (+ (* (- 87) x1) (* 15 x8) ) 87))
(define-fun ie12 () Bool (<= (+ (* 31 x3) (* (- 92) x3) ) 45))
(define-fun ie13 () Bool (<= (+ (* 5 x8) (* 37 x8) ) (- 83)))
(define-fun ie14 () Bool (<= (+ (* (- 36) x6) (* (- 93) x5) ) 35))
(define-fun ie15 () Bool (<= (+ (* (- 70) x3) (* (- 95) x2) ) 88))
(define-fun ie16 () Bool (<= (+ (* 43 x3) (* 91 x1) ) (- 89)))
(define-fun ie17 () Bool (<= (+ (* (- 48) x6) (* (- 96) x8) ) 26))
(define-fun ie18 () Bool (<= (+ (* 92 x1) (* (- 41) x2) ) 86))
(define-fun ie19 () Bool (<= (+ (* (- 95) x7) (* (- 15) x2) ) (- 22)))
(assert ie0)
(assert ie1)
(assert ie2)
(assert ie3)
(assert ie4)
(assert ie5)
(assert ie6)
(assert ie7)
(assert ie8)
(assert ie9)
(assert ie10)
(assert ie11)
(assert ie12)
(assert ie13)
(assert ie14)
(assert ie15)
(assert ie16)
(assert ie17)
(assert ie18)
(assert ie19)
(check-sat)
(exit)
